p tw 61 66
1 2
2 13
3 4
4 5
5 6
6 7
7 8
8 9
9 10
10 11
10 34
11 12
12 14
13 24
13 57
14 15
15 16
16 17
17 18
18 19
19 20
20 21
21 22
21 54
22 23
22 26
23 25
24 35
24 57
25 28
26 27
27 28
28 29
29 30
30 31
31 32
32 33
33 54
34 36
35 46
36 37
37 38
38 39
39 40
40 41
41 42
42 43
43 44
43 47
44 45
45 49
46 56
47 48
48 49
49 50
50 51
51 52
52 53
53 54
54 55
55 56
56 58
57 59
59 60
60 61
61 3
